58
1 3
2 7
3 15
4 19
5 25
6 34
7 43
8 0
9 12
10 21
11 30
12 39
13 6
14 15
15 24
16 33
17 42
18 50
19 3
20 16
21 24
22 33
23 42
----------
==========
%%%mzn-stat initTime=0.001558
%%%mzn-stat solveTime=0.014882
%%%mzn-stat solutions=5
%%%mzn-stat variables=291
%%%mzn-stat propagators=209
%%%mzn-stat propagations=31608
%%%mzn-stat nodes=297
%%%mzn-stat failures=123
%%%mzn-stat restarts=0
%%%mzn-stat peakDepth=26
%%%mzn-stat-end
